60
1430
5
40
33
29
94
85
0 1
0 2
0 3
0 4
0 5
0 6
0 7
0 8
0 9
0 10
0 12
0 13
0 14
0 15
0 16
0 17
0 19
0 21
0 22
0 23
0 24
0 25
0 26
0 27
0 28
0 29
0 30
0 31
0 32
0 33
0 34
0 35
0 36
0 37
0 38
0 41
0 42
0 43
0 44
0 46
0 47
0 49
0 50
0 51
0 53
0 54
0 55
0 56
0 57
0 58
0 59
1 2
1 3
1 4
1 5
1 6
1 7
1 8
1 9
1 11
1 12
1 13
1 14
1 15
1 17
1 18
1 19
1 20
1 23
1 24
1 26
1 27
1 28
1 29
1 30
1 31
1 32
1 34
1 35
1 37
1 38
1 39
1 40
1 41
1 42
1 43
1 44
1 45
1 46
1 47
1 48
1 49
1 51
1 52
1 54
1 55
1 56
1 57
1 58
1 59
2 5
2 6
2 7
2 9
2 10
2 11
2 12
2 13
2 14
2 15
2 16
2 17
2 18
2 19
2 20
2 21
2 22
2 23
2 24
2 25
2 26
2 27
2 28
2 29
2 30
2 32
2 33
2 34
2 36
2 39
2 40
2 41
2 44
2 46
2 47
2 49
2 51
2 52
2 53
2 54
2 56
2 57
2 58
2 59
3 4
3 5
3 6
3 9
3 11
3 14
3 15
3 16
3 17
3 18
3 19
3 20
3 21
3 23
3 24
3 25
3 26
3 27
3 28
3 29
3 30
3 31
3 32
3 35
3 36
3 37
3 38
3 39
3 40
3 42
3 43
3 46
3 47
3 48
3 49
3 50
3 51
3 52
3 53
3 54
3 55
3 56
4 5
4 6
4 8
4 9
4 10
4 11
4 12
4 13
4 14
4 15
4 16
4 18
4 19
4 20
4 21
4 22
4 23
4 24
4 26
4 27
4 28
4 29
4 30
4 31
4 32
4 33
4 34
4 36
4 37
4 38
4 39
4 40
4 41
4 42
4 43
4 44
4 45
4 46
4 47
4 48
4 49
4 50
4 52
4 54
4 55
4 56
4 57
4 58
5 6
5 7
5 8
5 9
5 10
5 11
5 12
5 13
5 14
5 15
5 16
5 17
5 18
5 19
5 20
5 21
5 22
5 24
5 25
5 26
5 29
5 30
5 31
5 32
5 33
5 35
5 36
5 37
5 40
5 41
5 42
5 43
5 44
5 47
5 48
5 49
5 50
5 52
5 53
5 54
5 55
5 56
5 57
5 58
6 11
6 12
6 13
6 14
6 15
6 16
6 18
6 19
6 20
6 21
6 22
6 23
6 25
6 26
6 29
6 31
6 32
6 33
6 34
6 35
6 37
6 38
6 39
6 40
6 41
6 42
6 43
6 45
6 46
6 47
6 48
6 49
6 50
6 51
6 52
6 54
6 55
6 56
6 57
6 58
6 59
7 8
7 9
7 10
7 11
7 12
7 13
7 16
7 17
7 18
7 19
7 20
7 21
7 22
7 23
7 24
7 26
7 27
7 28
7 29
7 30
7 31
7 32
7 33
7 34
7 35
7 36
7 37
7 38
7 39
7 41
7 42
7 43
7 44
7 45
7 46
7 47
7 48
7 49
7 50
7 51
7 52
7 53
7 54
7 55
7 56
7 57
7 58
7 59
8 9
8 10
8 12
8 14
8 15
8 16
8 17
8 18
8 19
8 20
8 23
8 24
8 25
8 26
8 28
8 29
8 30
8 31
8 32
8 33
8 35
8 38
8 39
8 40
8 41
8 43
8 44
8 45
8 46
8 47
8 49
8 50
8 51
8 52
8 53
8 54
8 55
8 56
8 58
8 59
9 10
9 11
9 14
9 15
9 16
9 19
9 20
9 21
9 22
9 23
9 24
9 26
9 27
9 29
9 31
9 33
9 35
9 38
9 39
9 40
9 42
9 43
9 44
9 45
9 48
9 49
9 50
9 51
9 52
9 53
9 54
9 55
9 56
9 57
9 58
10 11
10 12
10 13
10 14
10 15
10 16
10 17
10 18
10 19
10 20
10 21
10 22
10 23
10 24
10 25
10 26
10 28
10 29
10 30
10 31
10 32
10 33
10 34
10 35
10 36
10 37
10 40
10 41
10 42
10 43
10 44
10 45
10 46
10 47
10 48
10 49
10 50
10 51
10 52
10 53
10 54
10 55
10 56
10 57
10 58
10 59
11 12
11 14
11 15
11 16
11 17
11 19
11 20
11 21
11 22
11 23
11 24
11 26
11 29
11 30
11 32
11 33
11 34
11 35
11 36
11 37
11 38
11 39
11 40
11 41
11 42
11 44
11 45
11 46
11 47
11 48
11 49
11 50
11 51
11 52
11 54
11 55
11 56
11 57
11 58
11 59
12 13
12 14
12 15
12 18
12 19
12 20
12 21
12 22
12 23
12 24
12 25
12 26
12 27
12 28
12 30
12 31
12 32
12 33
12 34
12 35
12 36
12 37
12 38
12 39
12 40
12 41
12 42
12 43
12 44
12 45
12 47
12 48
12 49
12 50
12 51
12 53
12 54
12 55
12 56
12 58
12 59
13 15
13 17
13 18
13 19
13 20
13 22
13 23
13 24
13 25
13 26
13 27
13 28
13 32
13 33
13 34
13 36
13 37
13 38
13 39
13 40
13 41
13 42
13 43
13 44
13 45
13 46
13 47
13 48
13 49
13 50
13 51
13 52
13 53
13 54
13 55
13 58
14 15
14 17
14 18
14 19
14 20
14 21
14 22
14 25
14 26
14 27
14 29
14 30
14 33
14 34
14 36
14 38
14 40
14 41
14 42
14 43
14 45
14 46
14 47
14 48
14 50
14 51
14 52
14 53
14 55
14 56
14 57
14 58
14 59
15 17
15 18
15 19
15 20
15 21
15 25
15 26
15 27
15 28
15 29
15 30
15 31
15 32
15 33
15 34
15 35
15 37
15 38
15 39
15 40
15 41
15 42
15 44
15 45
15 46
15 47
15 48
15 50
15 51
15 52
15 54
15 55
15 56
15 57
15 58
15 59
16 17
16 18
16 19
16 20
16 21
16 22
16 24
16 26
16 27
16 28
16 30
16 31
16 32
16 33
16 35
16 36
16 39
16 41
16 42
16 43
16 44
16 45
16 46
16 47
16 48
16 49
16 50
16 51
16 52
16 53
16 54
16 55
16 56
16 57
16 58
16 59
17 19
17 20
17 21
17 22
17 23
17 25
17 26
17 27
17 29
17 30
17 31
17 32
17 33
17 34
17 35
17 36
17 38
17 39
17 40
17 42
17 43
17 44
17 45
17 46
17 47
17 49
17 50
17 51
17 52
17 53
17 55
17 56
17 57
17 58
17 59
18 19
18 20
18 23
18 25
18 26
18 27
18 28
18 30
18 31
18 32
18 34
18 36
18 37
18 38
18 39
18 40
18 41
18 42
18 44
18 45
18 46
18 47
18 48
18 50
18 51
18 52
18 53
18 54
18 55
18 57
18 58
18 59
19 21
19 22
19 23
19 24
19 25
19 28
19 29
19 30
19 31
19 32
19 34
19 35
19 36
19 37
19 39
19 40
19 41
19 42
19 43
19 44
19 45
19 46
19 47
19 48
19 50
19 51
19 52
19 54
19 55
19 56
19 57
19 58
19 59
20 21
20 22
20 24
20 26
20 27
20 28
20 29
20 30
20 31
20 32
20 33
20 34
20 35
20 36
20 37
20 39
20 40
20 43
20 45
20 47
20 48
20 49
20 50
20 51
20 52
20 53
20 54
20 55
20 56
20 57
20 58
20 59
21 22
21 23
21 25
21 26
21 27
21 28
21 29
21 30
21 31
21 32
21 33
21 34
21 35
21 36
21 37
21 38
21 40
21 42
21 43
21 44
21 45
21 46
21 47
21 48
21 49
21 50
21 51
21 52
21 53
21 54
21 55
21 56
21 58
21 59
22 23
22 24
22 25
22 26
22 27
22 30
22 32
22 33
22 34
22 36
22 37
22 41
22 44
22 45
22 46
22 47
22 49
22 50
22 51
22 52
22 53
22 54
22 55
22 56
22 57
22 58
22 59
23 24
23 26
23 27
23 28
23 29
23 30
23 31
23 32
23 33
23 34
23 35
23 36
23 38
23 39
23 41
23 42
23 43
23 44
23 45
23 46
23 47
23 49
23 51
23 52
23 53
23 54
23 55
23 57
23 59
24 25
24 26
24 27
24 28
24 30
24 31
24 32
24 33
24 34
24 35
24 36
24 37
24 38
24 39
24 40
24 41
24 42
24 43
24 44
24 45
24 46
24 48
24 49
24 50
24 53
24 55
24 57
25 26
25 28
25 30
25 31
25 32
25 33
25 34
25 35
25 36
25 38
25 39
25 40
25 41
25 42
25 43
25 45
25 47
25 48
25 49
25 51
25 52
25 54
25 58
25 59
26 27
26 28
26 29
26 30
26 31
26 33
26 34
26 35
26 36
26 37
26 38
26 39
26 40
26 41
26 42
26 43
26 45
26 46
26 47
26 48
26 52
26 53
26 54
26 55
26 56
26 57
26 59
27 28
27 29
27 30
27 31
27 32
27 33
27 34
27 35
27 36
27 38
27 39
27 40
27 41
27 42
27 43
27 44
27 45
27 46
27 47
27 48
27 49
27 50
27 51
27 52
27 53
27 54
27 55
27 56
27 57
27 58
27 59
28 29
28 30
28 31
28 32
28 34
28 36
28 37
28 38
28 39
28 40
28 41
28 42
28 43
28 44
28 45
28 46
28 47
28 48
28 49
28 50
28 51
28 52
28 53
28 54
28 55
28 56
28 57
28 59
29 30
29 31
29 32
29 33
29 35
29 36
29 37
29 38
29 40
29 42
29 45
29 46
29 47
29 48
29 49
29 51
29 52
29 54
29 55
30 31
30 33
30 34
30 35
30 36
30 37
30 39
30 40
30 41
30 42
30 43
30 45
30 47
30 48
30 49
30 50
30 51
30 52
30 53
30 55
30 56
30 58
31 32
31 33
31 34
31 35
31 36
31 37
31 38
31 39
31 40
31 41
31 42
31 43
31 44
31 47
31 48
31 49
31 50
31 51
31 52
31 53
31 54
31 55
31 56
31 58
31 59
32 33
32 34
32 35
32 36
32 37
32 38
32 40
32 41
32 42
32 46
32 47
32 48
32 49
32 50
32 51
32 52
32 53
32 56
32 57
32 58
32 59
33 34
33 35
33 36
33 37
33 38
33 40
33 41
33 42
33 45
33 46
33 47
33 48
33 49
33 50
33 51
33 52
33 57
33 58
33 59
34 35
34 36
34 38
34 40
34 41
34 42
34 43
34 44
34 45
34 46
34 47
34 48
34 49
34 51
34 52
34 53
34 54
34 55
34 56
34 58
34 59
35 36
35 37
35 38
35 40
35 42
35 43
35 44
35 46
35 47
35 50
35 51
35 53
35 54
35 55
35 56
35 57
35 58
35 59
36 38
36 39
36 40
36 41
36 42
36 44
36 46
36 47
36 48
36 50
36 52
36 53
36 55
36 56
36 57
36 58
36 59
37 38
37 39
37 40
37 41
37 42
37 44
37 45
37 46
37 48
37 50
37 52
37 53
37 55
37 56
37 57
37 58
37 59
38 39
38 40
38 41
38 42
38 43
38 45
38 48
38 49
38 50
38 51
38 52
38 53
38 54
38 55
38 57
38 58
38 59
39 40
39 41
39 42
39 43
39 44
39 45
39 46
39 48
39 49
39 50
39 51
39 52
39 53
39 54
39 55
39 57
39 58
40 41
40 42
40 43
40 44
40 45
40 46
40 47
40 48
40 49
40 50
40 51
40 52
40 54
40 55
40 57
40 58
41 42
41 43
41 44
41 46
41 47
41 48
41 50
41 51
41 52
41 53
41 55
41 56
41 57
41 58
41 59
42 43
42 44
42 45
42 47
42 49
42 52
42 55
42 56
42 58
43 44
43 45
43 46
43 47
43 48
43 49
43 50
43 51
43 53
43 54
43 55
43 56
43 57
43 59
44 45
44 46
44 47
44 49
44 51
44 52
44 53
44 54
44 55
44 56
44 57
44 58
44 59
45 46
45 47
45 48
45 49
45 50
45 51
45 52
45 53
45 54
45 55
45 56
45 57
45 59
46 47
46 48
46 49
46 50
46 51
46 52
46 53
46 55
46 56
46 58
47 48
47 51
47 52
47 53
47 54
47 56
47 57
47 58
47 59
48 49
48 50
48 51
48 52
48 53
48 54
48 55
48 56
48 57
49 50
49 51
49 55
49 56
49 58
49 59
50 52
50 53
50 54
50 55
50 56
50 58
50 59
51 52
51 53
51 56
51 57
51 58
51 59
52 54
52 56
52 57
52 58
52 59
53 55
53 56
53 59
54 55
54 56
54 57
54 58
54 59
55 56
55 57
55 58
56 57
56 58
56 59
57 58
58 59
20 21 58 19 52 40 48 28 3 16 1 6
15 8 45 44 26 56 47 12 29 41 4 14
25 30 27 53 35 38 10 31 46 49 7 39
5 2 54 37 13 59 51 57 43 0 50 42
22 23 18 17 36 32 24 55 9 11 33 34
